
  22   10
  10   10   10   10   10   10   10   10   10   10

   0   0   0   0   0   0   0   0   0   0   0   1 2 
  10   0   0   0   0   0   0  10   0   0   0   1 3 
   9   0   0   0   0  10   0   0   0   0   0   1 4 
  10   0   0   0   0   0   0   0   0   0  10   1 5 
  10   0   0   0  10   0   0   0   0   0   0   1 6 
   9   0  10   0   0   0   0   0   0   0   0   2 15 7 
   3   0   0  10   0   0   0   0   0   0   0   2 21 8 
   8   0   0   0  10   0   0   0   0   0   0   1 9 
   3   0   0   0   0   0   0   0   0  10   0   1 10 
   4   0   0   0   0   0   0   0   0  10   0   1 11 
   4   0   0  10   0   0   0   0   0   0   0   1 12 
   7   0   0  10   0   0   0   0   0   0   0   1 13 
   8   0   0   0   0  10   0   0   0   0   0   1 14 
  10   0   0   0   0   0   0   0   0   0  10   1 16 
   3   0   0   0   0   0   0   0   0  10   0   1 16 
   6  10   0   0   0   0   0   0   0   0   0   1 17 
   2   0   0   0  10   0   0   0   0   0   0   1 18 
   9   0   0   0   0   0   0   0   0   0  10   1 19 
   2   0   0   0   0   0   0  10   0   0   0   1 20 
   6   0  10   0   0   0   0   0   0   0   0   1 22
   4   0  10   0   0   0   0   0   0   0   0   1 22
   0   0   0   0   0   0   0   0   0   0   0   0 
